qbf_easy_train/easy_1116_SAT.qdimacs
p cnf 30 81
a 2 12 0
e 1 3 4 5 6 7 8 9 10 11 13 14 15 16 17 18 19 20 21 22 23 24 25 26 27 28 29 30 0
3 -1 0
3 -2 0
1 2 -3 0
-1 -4 -5 0
1 4 -5 0
-1 4 5 0
1 -4 5 0
-6 5 0
-6 3 0
-5 -3 6 0
7 -3 0
7 6 0
3 -6 -7 0
-8 1 0
-8 2 0
-1 -2 8 0
-9 -7 0
-9 8 0
7 -8 9 0
2 10 -11 0
-2 -10 -11 0
2 -10 11 0
-2 10 11 0
12 -9 0
12 11 0
9 -11 -12 0
3 -2 -13 0
-3 2 -13 0
3 2 13 0
-3 -2 13 0
-14 6 -15 0
14 -6 -15 0
-14 -6 15 0
14 6 15 0
-16 -5 0
-16 -4 0
5 4 16 0
-17 -14 0
-17 -14 0
14 17 0
16 17 -18 0
-16 -17 -18 0
16 -17 18 0
-16 17 18 0
15 18 -19 0
-15 -18 -19 0
15 -18 19 0
-15 18 19 0
13 19 -20 0
-13 -19 -20 0
13 -19 20 0
-13 19 20 0
21 12 0
21 20 0
-12 -20 -21 0
24 -23 0
24 23 0
-25 -22 0
-25 24 0
22 -24 25 0
-25 26 -27 0
25 -26 -27 0
-25 -26 27 0
25 26 27 0
-28 4 0
-28 23 0
-4 -23 28 0
-29 27 0
-29 28 0
-27 -28 29 0
30 -21 0
30 -29 0
21 29 -30 0
27 -25 -4 -14 -26 0
23 13 -10 14 26 0
-9 13 -23 29 -1 0
-16 -2 -23 11 -8 0
22 -2 -9 0
24 17 0
-7 21 -29 19 -3 0
30 0
