sat_easy_train/easy_1116_SAT.dimacs
p cnf 149 510
3 1 0
3 2 0
-1 -2 -3 0
5 3 0
5 4 0
-3 -4 -5 0
8 6 0
8 -7 0
-6 7 -8 0
9 4 0
9 -3 0
-4 3 -9 0
10 8 0
10 9 0
-8 -9 -10 0
13 2 0
13 12 0
-2 -12 -13 0
14 13 0
14 1 0
-13 -1 -14 0
-11 -14 -15 0
11 14 -15 0
-11 14 15 0
11 -14 15 0
-6 -14 -16 0
6 14 -16 0
-6 14 16 0
6 -14 16 0
-16 17 -18 0
16 -17 -18 0
-16 -17 18 0
16 17 18 0
-15 -18 -19 0
15 18 -19 0
-15 18 19 0
15 -18 19 0
-20 2 0
-20 -16 0
-2 16 20 0
-21 20 0
-21 20 0
-20 21 0
-23 -2 0
-23 -22 0
2 22 23 0
24 -23 0
24 -12 0
23 12 -24 0
21 24 -25 0
-21 -24 -25 0
21 -24 25 0
-21 24 25 0
-19 -25 -26 0
19 25 -26 0
-19 25 26 0
19 -25 26 0
-27 10 0
-27 -26 0
-10 26 27 0
-30 -18 0
-30 29 0
18 -29 30 0
32 30 0
32 31 0
-30 -31 -32 0
-33 7 0
-33 32 0
-7 -32 33 0
34 -9 0
34 -33 0
9 33 -34 0
-35 28 0
-35 -34 0
-28 34 35 0
-36 -6 -37 0
36 6 -37 0
-36 6 37 0
36 -6 37 0
38 -37 0
38 20 0
37 -20 -38 0
-39 -13 0
-39 12 0
13 -12 39 0
-40 16 0
-40 39 0
-16 -39 40 0
41 38 0
41 -40 0
-38 40 -41 0
-42 -35 0
-42 41 0
35 -41 42 0
-43 27 0
-43 42 0
-27 -42 43 0
-5 43 -44 0
5 -43 -44 0
-5 -43 44 0
5 43 44 0
-45 -18 0
-45 7 0
18 -7 45 0
-46 -14 0
-46 45 0
14 -45 46 0
-47 -29 0
-47 -17 0
29 17 47 0
48 -20 0
48 47 0
20 -47 -48 0
49 46 0
49 48 0
-46 -48 -49 0
-50 46 0
-50 49 0
-46 -49 50 0
-51 50 0
-51 21 0
-50 -21 51 0
19 -8 -52 0
-19 8 -52 0
19 8 52 0
-19 -8 52 0
-53 20 0
-53 -6 0
-20 6 53 0
52 53 -54 0
-52 -53 -54 0
52 -53 54 0
-52 53 54 0
55 -23 0
55 -14 0
23 14 -55 0
3 -55 -56 0
-3 55 -56 0
3 55 56 0
-3 -55 56 0
-57 21 0
-57 56 0
-21 -56 57 0
59 -4 0
59 58 0
4 -58 -59 0
-57 59 -60 0
57 -59 -60 0
-57 -59 60 0
57 59 60 0
-61 54 0
-61 60 0
-54 -60 61 0
-62 33 0
-62 -61 0
-33 61 62 0
63 -51 0
63 -62 0
51 62 -63 0
-36 -20 -64 0
36 20 -64 0
-36 20 64 0
36 -20 64 0
65 64 0
65 -1 0
-64 1 -65 0
-37 15 -66 0
37 -15 -66 0
-37 -15 66 0
37 15 66 0
67 65 0
67 -66 0
-65 66 -67 0
68 63 0
68 -67 0
-63 67 -68 0
69 12 0
69 23 0
-12 -23 -69 0
29 -70 -71 0
-29 70 -71 0
29 70 71 0
-29 -70 71 0
-71 60 -72 0
71 -60 -72 0
-71 -60 72 0
71 60 72 0
19 -7 -73 0
-19 7 -73 0
19 7 73 0
-19 -7 73 0
72 73 -74 0
-72 -73 -74 0
72 -73 74 0
-72 73 74 0
75 -69 0
75 -74 0
69 74 -75 0
76 -68 0
76 75 0
68 -75 -76 0
44 76 -77 0
-44 -76 -77 0
44 -76 77 0
-44 76 77 0
78 39 0
78 13 0
-39 -13 -78 0
4 -78 -79 0
-4 78 -79 0
4 78 79 0
-4 -78 79 0
80 -8 0
80 79 0
8 -79 -80 0
-81 -46 0
-81 -19 0
46 19 81 0
-82 -46 0
-82 -45 0
46 45 82 0
29 82 -83 0
-29 -82 -83 0
29 -82 83 0
-29 82 83 0
-84 -81 0
-84 -83 0
81 83 84 0
85 60 0
85 33 0
-60 -33 -85 0
-36 -7 -86 0
36 7 -86 0
-36 7 86 0
36 -7 86 0
87 -85 0
87 86 0
85 -86 -87 0
84 87 -88 0
-84 -87 -88 0
84 -87 88 0
-84 87 88 0
-89 57 0
-89 60 0
-57 -60 89 0
-90 88 0
-90 89 0
-88 -89 90 0
91 -80 0
91 -90 0
80 90 -91 0
-58 92 -93 0
58 -92 -93 0
-58 -92 93 0
58 92 93 0
94 -91 0
94 -93 0
91 93 -94 0
95 -4 0
95 39 0
4 -39 -95 0
-96 -30 0
-96 95 0
30 -95 96 0
-97 94 0
-97 96 0
-94 -96 97 0
-98 36 0
-98 18 0
-36 -18 98 0
-98 -9 -99 0
98 9 -99 0
-98 9 99 0
98 -9 99 0
99 -20 -100 0
-99 20 -100 0
99 20 100 0
-99 -20 100 0
-101 97 0
-101 -100 0
-97 100 101 0
-77 101 -102 0
77 -101 -102 0
-77 -101 102 0
77 101 102 0
53 -18 -103 0
-53 18 -103 0
53 18 103 0
-53 -18 103 0
104 -50 0
104 103 0
50 -103 -104 0
-105 -6 0
-105 61 0
6 -61 105 0
-106 -104 0
-106 -105 0
104 105 106 0
-47 -46 -107 0
47 46 -107 0
-47 46 107 0
47 -46 107 0
-108 -24 0
-108 -46 0
24 46 108 0
109 108 0
109 -36 0
-108 36 -109 0
-110 59 0
-110 109 0
-59 -109 110 0
111 -52 0
111 -110 0
52 110 -111 0
-112 59 0
-112 56 0
-59 -56 112 0
-113 -111 0
-113 -112 0
111 112 113 0
107 -113 -114 0
-107 113 -114 0
107 113 114 0
-107 -113 114 0
-115 -11 0
-115 64 0
11 -64 115 0
-114 115 -116 0
114 -115 -116 0
-114 -115 116 0
114 115 116 0
117 -17 0
117 -59 0
17 59 -117 0
118 64 0
118 -117 0
-64 117 -118 0
116 -118 -119 0
-116 118 -119 0
116 118 119 0
-116 -118 119 0
120 3 0
120 13 0
-3 -13 -120 0
120 48 -121 0
-120 -48 -121 0
120 -48 121 0
-120 48 121 0
-122 -47 0
-122 -121 0
47 121 122 0
123 -14 0
123 -55 0
14 55 -123 0
-4 123 -124 0
4 -123 -124 0
-4 -123 124 0
4 123 124 0
-122 -124 -125 0
122 124 -125 0
-122 124 125 0
122 -124 125 0
126 -18 0
126 -2 0
18 2 -126 0
-127 71 0
-127 126 0
-71 -126 127 0
128 -54 0
128 127 0
54 -127 -128 0
-127 128 -129 0
127 -128 -129 0
-127 -128 129 0
127 128 129 0
-130 125 0
-130 -129 0
-125 129 130 0
117 -47 -131 0
-117 47 -131 0
117 47 131 0
-117 -47 131 0
-132 130 0
-132 131 0
-130 -131 132 0
-119 132 -133 0
119 -132 -133 0
-119 -132 133 0
119 132 133 0
134 1 0
134 64 0
-1 -64 -134 0
-135 79 0
-135 34 0
-79 -34 135 0
134 -135 -136 0
-134 135 -136 0
134 135 136 0
-134 -135 136 0
-137 -133 0
-137 -136 0
133 136 137 0
106 137 -138 0
-106 -137 -138 0
106 -137 138 0
-106 137 138 0
102 138 -139 0
-102 -138 -139 0
102 -138 139 0
-102 138 139 0
-140 29 0
-140 15 0
-29 -15 140 0
141 -45 0
141 -140 0
45 140 -141 0
-30 37 -142 0
30 -37 -142 0
-30 -37 142 0
30 37 142 0
-141 142 -143 0
141 -142 -143 0
-141 -142 143 0
141 142 143 0
-144 139 0
-144 143 0
-139 -143 144 0
145 -11 0
145 -52 0
11 52 -145 0
-146 -109 0
-146 -56 0
109 56 146 0
20 -146 -147 0
-20 146 -147 0
20 146 147 0
-20 -146 147 0
148 145 0
148 -147 0
-145 147 -148 0
-149 -144 0
-149 148 0
144 -148 149 0
-116 -15 -85 16 0
41 -90 -78 0
130 -143 0
-60 -3 81 110 32 -30 0
-6 145 102 0
117 -25 0
-67 -99 7 0
-51 12 0
-145 70 -33 -133 71 37 0
-82 -33 7 -132 78 0
-26 -117 -93 -57 137 0
-129 46 0
-106 42 -54 -64 66 0
-88 73 -20 148 0
-129 12 -102 100 0
52 72 -5 -13 0
30 139 -106 0
-93 -16 0
14 15 -138 0
-66 97 24 -54 0
137 119 -121 19 146 0
-26 -131 -88 0
39 -14 -29 38 -63 -128 0
-109 82 0
-102 -140 -12 101 100 -55 0
-59 97 14 76 0
-86 26 -39 125 0
132 147 30 0
-98 3 0
55 11 149 -92 127 0
-97 -10 33 -32 -20 0
-43 -116 0
-69 41 92 -1 -107 63 0
93 35 45 -134 -57 0
103 -69 -135 0
44 -12 14 113 66 0
-123 -147 0
136 53 142 -52 9 -114 0
-134 47 -115 0
74 -114 53 -21 97 47 0
127 -135 5 34 0
133 -127 53 -36 -131 -111 0
-40 -143 148 0
137 -122 110 0
-90 -97 130 -87 -114 -110 0
114 112 -103 22 -24 0
-114 -10 -69 -89 -96 0
-100 -92 -44 0
-48 69 0
-112 -119 77 117 120 0
124 -137 0
-4 -95 19 -39 20 0
17 -50 71 0
10 -90 0
-96 138 -109 13 134 0
-39 49 -37 -135 149 -126 0
33 102 -19 5 0
110 20 126 119 0
-1 -10 0
38 110 0
141 -72 36 0
-67 86 -142 -70 0
70 124 118 0
-106 -94 -72 90 53 0
-100 -61 -111 0
-104 41 0
149 0
